(set-logic QF_UF)
(declare-fun A0 () Bool)
(declare-fun A1 () Bool)
(declare-fun A2 () Bool)
(declare-fun A3 () Bool)
(declare-fun A4 () Bool)
(declare-fun A6 () Bool)
(declare-fun A7 () Bool)
(declare-fun A8 () Bool)
(declare-fun A9 () Bool)
(declare-fun A10 () Bool)
(declare-fun A11 () Bool)
(declare-fun A12 () Bool)
(declare-fun A13 () Bool)
(declare-fun A14 () Bool)
(declare-fun A15 () Bool)
(declare-fun A16 () Bool)
(declare-fun A17 () Bool)
(declare-fun A19 () Bool)
(declare-fun A20 () Bool)
(declare-fun A21 () Bool)
(declare-fun A22 () Bool)
(declare-fun A23 () Bool)
(declare-fun A24 () Bool)
(assert (let ((.def_0 (not A7))) (let ((.def_1 (or .def_0 .def_0))) (let ((.def_2 (not .def_1))) (let ((.def_3 (= A20 A9))) (let ((.def_4 (not .def_3))) (let ((.def_5 (or .def_4 .def_2))) (let ((.def_6 (and A12 .def_0))) (let ((.def_7 (not .def_6))) (let ((.def_8 (not A15))) (let ((.def_9 (= A23 .def_8))) (let ((.def_10 (or .def_9 .def_7))) (let ((.def_11 (or .def_10 .def_5))) (let ((.def_12 (not .def_11))) (let ((.def_13 (and A23 A2))) (let ((.def_14 (not A13))) (let ((.def_15 (or .def_14 A23))) (let ((.def_16 (or .def_15 .def_13))) (let ((.def_17 (not .def_16))) (let ((.def_18 (not A20))) (let ((.def_19 (or A7 .def_18))) (let ((.def_20 (not A23))) (let ((.def_21 (not A14))) (let ((.def_22 (and .def_21 .def_20))) (let ((.def_23 (not .def_22))) (let ((.def_24 (= .def_23 .def_19))) (let ((.def_25 (and .def_24 .def_17))) (let ((.def_26 (and .def_25 .def_12))) (let ((.def_27 (not .def_26))) (let ((.def_28 (not A11))) (let ((.def_29 (and .def_28 A14))) (let ((.def_30 (and A13 A20))) (let ((.def_31 (not .def_30))) (let ((.def_32 (or .def_31 .def_29))) (let ((.def_33 (and .def_28 A0))) (let ((.def_34 (not .def_33))) (let ((.def_35 (and .def_20 .def_8))) (let ((.def_36 (not .def_35))) (let ((.def_37 (and .def_36 .def_34))) (let ((.def_38 (not .def_37))) (let ((.def_39 (= .def_38 .def_32))) (let ((.def_40 (or A8 .def_0))) (let ((.def_41 (= .def_20 A2))) (let ((.def_42 (not .def_41))) (let ((.def_43 (or .def_42 .def_40))) (let ((.def_44 (not A21))) (let ((.def_45 (not A9))) (let ((.def_46 (or .def_45 .def_44))) (let ((.def_47 (or .def_0 .def_28))) (let ((.def_48 (or .def_47 .def_46))) (let ((.def_49 (or .def_48 .def_43))) (let ((.def_50 (and .def_49 .def_39))) (let ((.def_51 (and .def_50 .def_27))) (let ((.def_52 (not .def_51))) (let ((.def_53 (and .def_20 .def_44))) (let ((.def_54 (or A19 .def_18))) (let ((.def_55 (= .def_54 .def_53))) (let ((.def_56 (not .def_55))) (let ((.def_57 (not A22))) (let ((.def_58 (not A8))) (let ((.def_59 (and .def_58 .def_57))) (let ((.def_60 (not .def_59))) (let ((.def_61 (or A16 A23))) (let ((.def_62 (not .def_61))) (let ((.def_63 (or .def_62 .def_60))) (let ((.def_64 (and .def_63 .def_56))) (let ((.def_65 (not .def_64))) (let ((.def_66 (not A17))) (let ((.def_67 (and A17 .def_66))) (let ((.def_68 (not A10))) (let ((.def_69 (and .def_66 .def_68))) (let ((.def_70 (not .def_69))) (let ((.def_71 (and .def_70 .def_67))) (let ((.def_72 (and .def_44 .def_66))) (let ((.def_73 (not A6))) (let ((.def_74 (and .def_0 .def_73))) (let ((.def_75 (or .def_74 .def_72))) (let ((.def_76 (not .def_75))) (let ((.def_77 (or .def_76 .def_71))) (let ((.def_78 (or .def_77 .def_65))) (let ((.def_79 (or A11 A12))) (let ((.def_80 (or .def_68 A21))) (let ((.def_81 (or .def_80 .def_79))) (let ((.def_82 (not .def_81))) (let ((.def_83 (or A2 A20))) (let ((.def_84 (or .def_45 A1))) (let ((.def_85 (not .def_84))) (let ((.def_86 (and .def_85 .def_83))) (let ((.def_87 (and .def_86 .def_82))) (let ((.def_88 (not .def_87))) (let ((.def_89 (not A2))) (let ((.def_90 (or .def_89 A19))) (let ((.def_91 (not .def_90))) (let ((.def_92 (or A3 A13))) (let ((.def_93 (not .def_92))) (let ((.def_94 (or .def_93 .def_91))) (let ((.def_95 (not .def_94))) (let ((.def_96 (not A4))) (let ((.def_97 (and A21 .def_96))) (let ((.def_98 (= A24 .def_28))) (let ((.def_99 (not .def_98))) (let ((.def_100 (= .def_99 .def_97))) (let ((.def_101 (or .def_100 .def_95))) (let ((.def_102 (not .def_101))) (let ((.def_103 (and .def_102 .def_88))) (let ((.def_104 (or .def_103 .def_78))) (let ((.def_105 (not .def_104))) (let ((.def_106 (or .def_105 .def_52))) (let ((.def_107 (not .def_106))) .def_107)))))))))))))))))))))))))))))))))))))))))))))))))))))))))))))))))))))))))))))))))))))))))))))))))))))))))))))
(check-sat)
